data/solutions/planning/wellformed/moderate/weighting/wellformed_moderate_instance31_cplex.sol
Elapsed time: 0.05
Nodes explored: 218
Nodes left: 0
Relative gap: 0.0
Upper bound: 4349.0
Lower bound: 4349
C[0]=290.0
C[1]=290.0
C[2]=290.0
C[3]=289.0
y[0]=3
y[1]=1
y[2]=1
y[3]=1
y[4]=0
y[5]=0
y[6]=3
y[7]=1
y[8]=3
y[9]=2
y[10]=0
y[11]=2
y[12]=3
y[13]=1
y[14]=1
y[15]=3
y[16]=3
y[17]=0
y[18]=1
y[19]=1
y[20]=0
y[21]=1
y[22]=3
y[23]=2
y[24]=1
y[25]=1
y[26]=1
y[27]=2
y[28]=3
y[29]=1
